************************************************************************
file with basedata            : j30_36.bas
initial value random generator: 287935110
************************************************************************
projects                      :  1
jobs (incl. supersource/sink ):  32
horizon                       :  137
RESOURCES
  - renewable                 :  4   R
  - nonrenewable              :  0   N
  - doubly constrained        :  0   D
************************************************************************
PROJECT INFORMATION:
pronr.  #jobs rel.date duedate tardcost  MPM-Time
    1     30      0       37       16       37
************************************************************************
PRECEDENCE RELATIONS:
jobnr.    #modes  #successors   successors
   1        1          3           2   3   4
   2        1          2          15  16
   3        1          3           5   7   8
   4        1          1           6
   5        1          3          10  17  29
   6        1          3           9  10  14
   7        1          1          13
   8        1          2           9  12
   9        1          3          11  20  26
  10        1          1          16
  11        1          1          23
  12        1          3          13  15  17
  13        1          2          18  23
  14        1          3          20  22  27
  15        1          3          19  21  25
  16        1          2          25  31
  17        1          3          18  21  30
  18        1          1          20
  19        1          3          24  26  29
  20        1          1          31
  21        1          1          26
  22        1          2          24  28
  23        1          3          24  25  28
  24        1          1          30
  25        1          1          30
  26        1          1          31
  27        1          1          28
  28        1          1          29
  29        1          1          32
  30        1          1          32
  31        1          1          32
  32        1          0        
************************************************************************
REQUESTS/DURATIONS:
jobnr. mode duration  R 1  R 2  R 3  R 4
------------------------------------------------------------------------
  1      1     0       0    0    0    0
  2      1    10       0    9    0    0
  3      1     9       2    0    0    0
  4      1     3       0    6    0    0
  5      1     5       3    0    0    0
  6      1     5       0    0    4    0
  7      1     1       0    0    4    0
  8      1     1       0    7    0    0
  9      1     5       0    0   10    0
 10      1     5       0    5    0    0
 11      1     6       0    0    3    0
 12      1     4       6    0    0    0
 13      1    10       0    0    0    7
 14      1     4       0    4    0    0
 15      1    10       0    0    0    7
 16      1     1       0    0    5    0
 17      1     5       0    8    0    0
 18      1     4       0    5    0    0
 19      1     8       0    0    0    6
 20      1     3       0    0    5    0
 21      1     8       0   10    0    0
 22      1     4       0    6    0    0
 23      1     1       0    0    4    0
 24      1     4       0    0    1    0
 25      1     4       0   10    0    0
 26      1     1       0    8    0    0
 27      1     7       0    0    7    0
 28      1     4       0    0    0    6
 29      1     2       0    0    0   10
 30      1     1       0    4    0    0
 31      1     2       0    0    0    5
 32      1     0       0    0    0    0
************************************************************************
RESOURCEAVAILABILITIES:
  R 1  R 2  R 3  R 4
    9   25   17   15
************************************************************************
Job	#risk	Type	VL	mu	sigma	Type	VL	mu	sigma
5	2	2	0.1	2.5	0.25	5	0.05	6.25	0.3125
7	2	3	0.1	3.75	0.375	8	0.1	10	1
8	1	8	0.2	10	2
13	1	4	0.1	5	0.5
19	1	5	0.05	6.25	0.3125
22	1	2	0.05	2.5	0.125
25	1	6	0.05	7.5	0.375
26	2	3	0.2	3.75	0.75	7	0.1	8.75	0.875
30	1	1	0.1	1.25	0.125
